NAME: tsp20_14
COMMENT: 20-tsp problem (Padberg/Rinaldi)
TYPE: TSP
DIMENSION: 20
EDGE_WEIGHT_TYPE : EUC_2D
NODE_COORD_SECTION
1 11 4
2 1 19
3 11 5
4 36 26
5 5 29
6 24 38
7 37 13
8 39 16
9 36 34
10 2 7
11 4 10
12 21 19
13 3 26
14 1 13
15 38 15
16 25 28
17 39 35
18 16 35
19 32 33
20 36 5
